proyfinal/src/viki/013/experimentInOfficeAgust.take6.output/776ea5b1-48a7-444c-9f43-6875f4aa446b.als.dat
{'cnf.clauses': '118081',
 'cnf.totvars': '69608',
 'conflict literals': '56',
 'conflicts': '23',
 'decisions': '5071',
 'memused.mb': '15.94',
 'outcome': 'UNSAT',
 'propagations': '26515',
 'restarts': '1',
 'solver.msecs': 37,
 'task.msecs': 123}
