proyfinal/src/viki/013/experimentInOfficeAgust.take6.output/776ea5b1-48a7-444c-9f43-6875f4aa446b.als.out
Reading from standard input... Use '--help' for help.
============================[ Problem Statistics ]=============================
|                                                                             |
|  Number of variables:         69608                                         |
|  Number of clauses:          118081                                         |
|  Parse time:                   0.03 s                                       |
|                                                                             |
============================[ Search Statistics ]==============================
| Conflicts |          ORIGINAL         |          LEARNT          | Progress |
|           |    Vars  Clauses Literals |    Limit  Clauses Lit/Cl |          |
===============================================================================
===============================================================================
restarts              : 1
conflicts             : 23             (620 /sec)
decisions             : 5071           (0.00 % random) (136600 /sec)
propagations          : 26515          (714247 /sec)
conflict literals     : 56             (0.00 % deleted)
Memory used           : 15.94 MB
CPU time              : 0.037123 s

UNSATISFIABLE
